NAME: cuum840.tsp
TYPE: TSP
COMMENT: User-generated TSP file
DIMENSION: 840
EDGE_WEIGHT_TYPE: EUC_2D
NODE_COORD_SECTION
1 449.0 791.0
2 337.0 227.0
3 832.0 667.0
4 21.0 6.0
5 162.0 501.0
6 542.0 470.0
7 425.0 279.0
8 734.0 535.0
9 675.0 387.0
10 18.0 204.0
11 548.0 533.0
12 203.0 306.0
13 758.0 521.0
14 616.0 14.0
15 19.0 712.0
16 90.0 792.0
17 4.0 296.0
18 258.0 683.0
19 377.0 462.0
20 87.0 563.0
21 606.0 134.0
22 595.0 628.0
23 29.0 759.0
24 796.0 598.0
25 229.0 820.0
26 259.0 629.0
27 199.0 3.0
28 626.0 357.0
29 172.0 505.0
30 167.0 631.0
31 416.0 617.0
32 427.0 727.0
33 560.0 752.0
34 454.0 646.0
35 794.0 170.0
36 241.0 679.0
37 724.0 743.0
38 4.0 488.0
39 306.0 337.0
40 660.0 482.0
41 620.0 458.0
42 444.0 631.0
43 62.0 264.0
44 323.0 589.0
45 699.0 166.0
46 774.0 755.0
47 533.0 80.0
48 587.0 319.0
49 115.0 163.0
50 341.0 641.0
51 122.0 253.0
52 757.0 809.0
53 736.0 148.0
54 249.0 458.0
55 227.0 258.0
56 741.0 155.0
57 41.0 443.0
58 432.0 96.0
59 389.0 100.0
60 776.0 320.0
61 367.0 153.0
62 801.0 312.0
63 476.0 559.0
64 243.0 793.0
65 834.0 597.0
66 496.0 679.0
67 366.0 107.0
68 405.0 489.0
69 402.0 424.0
70 139.0 378.0
71 367.0 616.0
72 245.0 555.0
73 491.0 77.0
74 371.0 441.0
75 562.0 495.0
76 434.0 56.0
77 236.0 60.0
78 786.0 10.0
79 610.0 147.0
80 118.0 782.0
81 7.0 46.0
82 344.0 813.0
83 321.0 788.0
84 305.0 805.0
85 685.0 572.0
86 528.0 433.0
87 436.0 328.0
88 640.0 55.0
89 511.0 19.0
90 741.0 301.0
91 266.0 682.0
92 79.0 432.0
93 31.0 683.0
94 215.0 681.0
95 239.0 130.0
96 23.0 4.0
97 264.0 324.0
98 792.0 597.0
99 754.0 501.0
100 366.0 252.0
101 373.0 752.0
102 34.0 425.0
103 69.0 675.0
104 813.0 59.0
105 793.0 837.0
106 400.0 797.0
107 125.0 658.0
108 363.0 163.0
109 455.0 205.0
110 554.0 54.0
111 114.0 7.0
112 633.0 725.0
113 76.0 185.0
114 806.0 577.0
115 297.0 55.0
116 215.0 353.0
117 222.0 551.0
118 770.0 568.0
119 323.0 321.0
120 460.0 228.0
121 810.0 291.0
122 19.0 437.0
123 832.0 633.0
124 419.0 517.0
125 815.0 513.0
126 566.0 94.0
127 119.0 336.0
128 183.0 697.0
129 415.0 293.0
130 621.0 279.0
131 251.0 214.0
132 1.0 734.0
133 817.0 732.0
134 239.0 108.0
135 506.0 661.0
136 342.0 631.0
137 250.0 627.0
138 750.0 627.0
139 19.0 226.0
140 467.0 649.0
141 511.0 817.0
142 305.0 473.0
143 160.0 219.0
144 106.0 450.0
145 172.0 121.0
146 277.0 447.0
147 574.0 341.0
148 133.0 43.0
149 177.0 249.0
150 758.0 175.0
151 499.0 107.0
152 248.0 807.0
153 745.0 813.0
154 531.0 42.0
155 44.0 491.0
156 436.0 223.0
157 657.0 734.0
158 804.0 435.0
159 696.0 561.0
160 745.0 479.0
161 104.0 668.0
162 788.0 500.0
163 775.0 637.0
164 623.0 311.0
165 237.0 741.0
166 401.0 475.0
167 382.0 102.0
168 166.0 809.0
169 634.0 545.0
170 328.0 92.0
171 236.0 818.0
172 637.0 264.0
173 443.0 251.0
174 312.0 440.0
175 754.0 374.0
176 287.0 24.0
177 12.0 59.0
178 300.0 188.0
179 325.0 202.0
180 317.0 823.0
181 317.0 466.0
182 533.0 832.0
183 605.0 343.0
184 641.0 523.0
185 725.0 794.0
186 303.0 21.0
187 788.0 102.0
188 231.0 38.0
189 689.0 602.0
190 326.0 321.0
191 519.0 87.0
192 165.0 544.0
193 36.0 520.0
194 153.0 123.0
195 389.0 139.0
196 332.0 463.0
197 68.0 584.0
198 601.0 640.0
199 375.0 468.0
200 173.0 207.0
201 141.0 163.0
202 736.0 63.0
203 475.0 11.0
204 345.0 242.0
205 751.0 686.0
206 260.0 306.0
207 481.0 757.0
208 652.0 616.0
209 44.0 170.0
210 265.0 306.0
211 526.0 463.0
212 407.0 791.0
213 515.0 289.0
214 454.0 838.0
215 764.0 386.0
216 175.0 167.0
217 455.0 582.0
218 445.0 745.0
219 275.0 193.0
220 166.0 445.0
221 151.0 512.0
222 81.0 365.0
223 17.0 104.0
224 60.0 397.0
225 309.0 306.0
226 627.0 54.0
227 286.0 742.0
228 233.0 167.0
229 2.0 440.0
230 521.0 786.0
231 175.0 545.0
232 462.0 147.0
233 66.0 480.0
234 256.0 640.0
235 333.0 326.0
236 806.0 486.0
237 139.0 589.0
238 657.0 214.0
239 384.0 546.0
240 759.0 492.0
241 388.0 34.0
242 312.0 575.0
243 715.0 834.0
244 490.0 291.0
245 562.0 675.0
246 244.0 368.0
247 471.0 409.0
248 524.0 189.0
249 787.0 827.0
250 474.0 536.0
251 753.0 783.0
252 5.0 20.0
253 78.0 208.0
254 696.0 823.0
255 674.0 106.0
256 690.0 803.0
257 530.0 282.0
258 506.0 85.0
259 658.0 197.0
260 26.0 643.0
261 39.0 254.0
262 436.0 151.0
263 515.0 167.0
264 637.0 493.0
265 268.0 79.0
266 555.0 626.0
267 67.0 608.0
268 262.0 163.0
269 728.0 579.0
270 342.0 783.0
271 814.0 273.0
272 566.0 533.0
273 203.0 772.0
274 335.0 46.0
275 381.0 691.0
276 702.0 159.0
277 139.0 33.0
278 54.0 621.0
279 461.0 309.0
280 27.0 86.0
281 711.0 718.0
282 406.0 680.0
283 531.0 672.0
284 776.0 1.0
285 150.0 74.0
286 591.0 332.0
287 5.0 386.0
288 424.0 699.0
289 80.0 452.0
290 661.0 379.0
291 72.0 60.0
292 515.0 397.0
293 350.0 466.0
294 490.0 506.0
295 279.0 420.0
296 49.0 393.0
297 527.0 166.0
298 285.0 408.0
299 403.0 63.0
300 88.0 611.0
301 137.0 552.0
302 118.0 449.0
303 124.0 451.0
304 315.0 54.0
305 42.0 835.0
306 79.0 206.0
307 42.0 26.0
308 163.0 397.0
309 420.0 314.0
310 459.0 327.0
311 278.0 743.0
312 184.0 230.0
313 782.0 112.0
314 322.0 401.0
315 553.0 475.0
316 443.0 142.0
317 730.0 398.0
318 788.0 428.0
319 150.0 14.0
320 509.0 404.0
321 448.0 392.0
322 424.0 24.0
323 75.0 743.0
324 327.0 297.0
325 544.0 786.0
326 521.0 665.0
327 459.0 460.0
328 655.0 718.0
329 834.0 260.0
330 625.0 114.0
331 738.0 307.0
332 439.0 385.0
333 156.0 467.0
334 745.0 449.0
335 790.0 184.0
336 47.0 419.0
337 584.0 743.0
338 14.0 557.0
339 62.0 762.0
340 579.0 593.0
341 829.0 2.0
342 840.0 504.0
343 41.0 546.0
344 228.0 502.0
345 83.0 807.0
346 621.0 144.0
347 567.0 759.0
348 730.0 172.0
349 591.0 793.0
350 743.0 332.0
351 76.0 643.0
352 437.0 600.0
353 484.0 191.0
354 235.0 675.0
355 702.0 566.0
356 22.0 586.0
357 555.0 263.0
358 109.0 608.0
359 289.0 414.0
360 741.0 141.0
361 261.0 275.0
362 573.0 455.0
363 732.0 501.0
364 732.0 320.0
365 340.0 753.0
366 440.0 252.0
367 268.0 58.0
368 525.0 495.0
369 349.0 751.0
370 726.0 109.0
371 318.0 86.0
372 174.0 389.0
373 228.0 75.0
374 128.0 727.0
375 121.0 95.0
376 182.0 53.0
377 812.0 229.0
378 336.0 291.0
379 472.0 681.0
380 57.0 379.0
381 777.0 384.0
382 692.0 681.0
383 708.0 419.0
384 16.0 167.0
385 257.0 498.0
386 237.0 512.0
387 787.0 641.0
388 781.0 578.0
389 583.0 211.0
390 541.0 553.0
391 285.0 231.0
392 21.0 291.0
393 764.0 649.0
394 95.0 336.0
395 789.0 749.0
396 631.0 825.0
397 624.0 522.0
398 179.0 374.0
399 307.0 402.0
400 772.0 74.0
401 686.0 790.0
402 638.0 607.0
403 627.0 591.0
404 34.0 565.0
405 379.0 423.0
406 550.0 718.0
407 591.0 271.0
408 780.0 772.0
409 66.0 570.0
410 582.0 100.0
411 238.0 683.0
412 796.0 192.0
413 506.0 541.0
414 361.0 520.0
415 584.0 825.0
416 730.0 599.0
417 824.0 696.0
418 224.0 242.0
419 376.0 718.0
420 791.0 835.0
421 283.0 685.0
422 47.0 147.0
423 538.0 218.0
424 580.0 112.0
425 824.0 824.0
426 67.0 667.0
427 288.0 612.0
428 265.0 568.0
429 158.0 623.0
430 779.0 818.0
431 623.0 224.0
432 375.0 313.0
433 799.0 133.0
434 521.0 172.0
435 271.0 740.0
436 349.0 257.0
437 369.0 588.0
438 478.0 325.0
439 754.0 536.0
440 420.0 611.0
441 36.0 292.0
442 734.0 542.0
443 196.0 36.0
444 408.0 512.0
445 117.0 251.0
446 550.0 300.0
447 534.0 159.0
448 327.0 415.0
449 762.0 430.0
450 485.0 197.0
451 319.0 525.0
452 487.0 26.0
453 270.0 806.0
454 469.0 720.0
455 49.0 295.0
456 792.0 244.0
457 54.0 551.0
458 801.0 390.0
459 113.0 551.0
460 80.0 284.0
461 703.0 473.0
462 18.0 288.0
463 544.0 381.0
464 494.0 674.0
465 799.0 61.0
466 584.0 253.0
467 108.0 524.0
468 37.0 838.0
469 251.0 29.0
470 64.0 707.0
471 426.0 95.0
472 803.0 350.0
473 217.0 412.0
474 120.0 727.0
475 152.0 127.0
476 778.0 527.0
477 519.0 416.0
478 787.0 721.0
479 329.0 559.0
480 511.0 770.0
481 351.0 511.0
482 65.0 404.0
483 431.0 468.0
484 672.0 258.0
485 385.0 276.0
486 14.0 452.0
487 762.0 548.0
488 577.0 734.0
489 605.0 621.0
490 752.0 309.0
491 265.0 805.0
492 606.0 581.0
493 117.0 157.0
494 498.0 22.0
495 592.0 37.0
496 839.0 722.0
497 522.0 690.0
498 569.0 320.0
499 345.0 213.0
500 811.0 495.0
501 680.0 723.0
502 816.0 188.0
503 610.0 348.0
504 264.0 95.0
505 414.0 514.0
506 399.0 514.0
507 778.0 278.0
508 76.0 677.0
509 537.0 823.0
510 126.0 672.0
511 108.0 707.0
512 596.0 415.0
513 218.0 622.0
514 68.0 351.0
515 611.0 69.0
516 214.0 550.0
517 300.0 817.0
518 308.0 381.0
519 346.0 143.0
520 609.0 700.0
521 412.0 358.0
522 614.0 87.0
523 789.0 192.0
524 376.0 134.0
525 461.0 280.0
526 516.0 235.0
527 39.0 18.0
528 211.0 349.0
529 407.0 586.0
530 332.0 443.0
531 421.0 789.0
532 275.0 735.0
533 13.0 465.0
534 807.0 787.0
535 152.0 523.0
536 49.0 653.0
537 341.0 243.0
538 165.0 687.0
539 244.0 351.0
540 353.0 628.0
541 504.0 274.0
542 564.0 674.0
543 827.0 377.0
544 351.0 499.0
545 293.0 123.0
546 396.0 61.0
547 747.0 672.0
548 427.0 498.0
549 433.0 80.0
550 506.0 341.0
551 437.0 538.0
552 697.0 326.0
553 603.0 101.0
554 204.0 50.0
555 627.0 614.0
556 41.0 542.0
557 839.0 252.0
558 372.0 65.0
559 490.0 162.0
560 481.0 652.0
561 654.0 430.0
562 477.0 181.0
563 704.0 350.0
564 132.0 428.0
565 18.0 384.0
566 607.0 708.0
567 754.0 109.0
568 78.0 195.0
569 75.0 90.0
570 815.0 318.0
571 160.0 93.0
572 547.0 829.0
573 791.0 273.0
574 77.0 214.0
575 298.0 496.0
576 101.0 321.0
577 393.0 523.0
578 379.0 308.0
579 84.0 598.0
580 34.0 109.0
581 571.0 707.0
582 302.0 478.0
583 37.0 569.0
584 745.0 276.0
585 179.0 824.0
586 276.0 316.0
587 605.0 315.0
588 364.0 774.0
589 54.0 239.0
590 91.0 703.0
591 560.0 294.0
592 829.0 109.0
593 760.0 547.0
594 675.0 245.0
595 467.0 747.0
596 734.0 464.0
597 126.0 167.0
598 229.0 307.0
599 764.0 23.0
600 74.0 98.0
601 288.0 831.0
602 585.0 538.0
603 107.0 569.0
604 771.0 224.0
605 741.0 221.0
606 573.0 212.0
607 148.0 771.0
608 242.0 534.0
609 548.0 137.0
610 404.0 830.0
611 490.0 325.0
612 633.0 732.0
613 585.0 794.0
614 395.0 175.0
615 189.0 530.0
616 545.0 125.0
617 462.0 174.0
618 214.0 108.0
619 830.0 412.0
620 501.0 537.0
621 50.0 434.0
622 561.0 105.0
623 414.0 112.0
624 163.0 281.0
625 820.0 457.0
626 430.0 657.0
627 392.0 423.0
628 60.0 742.0
629 802.0 238.0
630 311.0 354.0
631 306.0 132.0
632 6.0 440.0
633 251.0 327.0
634 591.0 393.0
635 293.0 195.0
636 820.0 596.0
637 200.0 597.0
638 416.0 164.0
639 605.0 412.0
640 690.0 684.0
641 519.0 711.0
642 158.0 96.0
643 664.0 217.0
644 721.0 548.0
645 732.0 373.0
646 16.0 271.0
647 153.0 103.0
648 138.0 692.0
649 497.0 50.0
650 813.0 612.0
651 48.0 446.0
652 634.0 309.0
653 306.0 12.0
654 49.0 503.0
655 765.0 775.0
656 814.0 383.0
657 731.0 486.0
658 559.0 247.0
659 592.0 308.0
660 371.0 204.0
661 242.0 639.0
662 679.0 743.0
663 517.0 144.0
664 113.0 415.0
665 788.0 140.0
666 335.0 67.0
667 665.0 246.0
668 193.0 3.0
669 190.0 81.0
670 28.0 79.0
671 821.0 245.0
672 764.0 276.0
673 463.0 73.0
674 40.0 128.0
675 667.0 612.0
676 358.0 143.0
677 560.0 631.0
678 529.0 189.0
679 694.0 361.0
680 767.0 616.0
681 301.0 268.0
682 661.0 72.0
683 223.0 115.0
684 680.0 462.0
685 298.0 377.0
686 791.0 185.0
687 800.0 783.0
688 639.0 201.0
689 287.0 152.0
690 485.0 255.0
691 131.0 807.0
692 807.0 353.0
693 433.0 18.0
694 618.0 17.0
695 548.0 335.0
696 443.0 487.0
697 545.0 543.0
698 313.0 834.0
699 480.0 328.0
700 400.0 135.0
701 215.0 520.0
702 354.0 567.0
703 631.0 477.0
704 21.0 106.0
705 389.0 593.0
706 325.0 749.0
707 764.0 504.0
708 164.0 236.0
709 343.0 822.0
710 239.0 481.0
711 274.0 120.0
712 535.0 466.0
713 302.0 50.0
714 801.0 134.0
715 281.0 595.0
716 637.0 833.0
717 679.0 837.0
718 228.0 94.0
719 19.0 132.0
720 513.0 228.0
721 654.0 77.0
722 473.0 393.0
723 334.0 616.0
724 729.0 286.0
725 369.0 487.0
726 786.0 528.0
727 326.0 511.0
728 700.0 604.0
729 400.0 541.0
730 65.0 437.0
731 501.0 570.0
732 376.0 371.0
733 831.0 753.0
734 142.0 235.0
735 474.0 464.0
736 788.0 713.0
737 705.0 643.0
738 838.0 628.0
739 825.0 622.0
740 737.0 749.0
741 516.0 707.0
742 625.0 532.0
743 173.0 371.0
744 729.0 62.0
745 394.0 771.0
746 387.0 176.0
747 161.0 146.0
748 32.0 338.0
749 252.0 458.0
750 568.0 415.0
751 665.0 813.0
752 66.0 596.0
753 349.0 408.0
754 684.0 678.0
755 532.0 180.0
756 687.0 719.0
757 12.0 494.0
758 547.0 644.0
759 137.0 385.0
760 2.0 805.0
761 524.0 161.0
762 337.0 557.0
763 425.0 714.0
764 480.0 336.0
765 322.0 835.0
766 138.0 731.0
767 164.0 832.0
768 273.0 680.0
769 801.0 442.0
770 511.0 54.0
771 530.0 402.0
772 440.0 89.0
773 152.0 371.0
774 49.0 730.0
775 544.0 211.0
776 670.0 793.0
777 417.0 560.0
778 324.0 8.0
779 819.0 34.0
780 230.0 514.0
781 828.0 559.0
782 542.0 5.0
783 735.0 137.0
784 794.0 212.0
785 377.0 221.0
786 432.0 233.0
787 376.0 118.0
788 526.0 823.0
789 439.0 279.0
790 721.0 796.0
791 761.0 107.0
792 331.0 733.0
793 157.0 447.0
794 645.0 312.0
795 126.0 354.0
796 824.0 752.0
797 255.0 814.0
798 832.0 467.0
799 764.0 124.0
800 621.0 454.0
801 630.0 501.0
802 639.0 300.0
803 421.0 372.0
804 641.0 105.0
805 715.0 63.0
806 559.0 285.0
807 401.0 274.0
808 437.0 307.0
809 115.0 336.0
810 191.0 4.0
811 344.0 247.0
812 284.0 210.0
813 217.0 126.0
814 782.0 324.0
815 817.0 95.0
816 285.0 416.0
817 564.0 727.0
818 826.0 679.0
819 476.0 119.0
820 420.0 704.0
821 265.0 675.0
822 698.0 500.0
823 446.0 660.0
824 474.0 221.0
825 734.0 739.0
826 48.0 679.0
827 532.0 91.0
828 357.0 659.0
829 682.0 210.0
830 616.0 784.0
831 216.0 235.0
832 327.0 539.0
833 718.0 702.0
834 30.0 102.0
835 541.0 572.0
836 401.0 657.0
837 114.0 302.0
838 237.0 484.0
839 460.0 76.0
840 617.0 269.0
EOF





